\ENCODING=ISO-8859-1
\Problem name: IloCplex

Maximize
 obj1: 981 X(0) + 980 X(1) + 979 X(2) + 978 X(3) + 977 X(4) + 976 X(5)
       + 487 X(6) + 974 X(7) + 970 X(8) + 485 X(9) + 485 X(10) + 970 X(11)
       + 970 X(12) + 484 X(13) + 484 X(14) + 976 X(15) + 974 X(16) + 482 X(17)
       + 962 X(18) + 961 X(19) + 959 X(20) + 958 X(21) + 857 X(22)
Subject To
 Capacity: 983 X(0) + 982 X(1) + 981 X(2) + 980 X(3) + 979 X(4) + 978 X(5)
           + 488 X(6) + 976 X(7) + 972 X(8) + 486 X(9) + 486 X(10) + 972 X(11)
           + 972 X(12) + 485 X(13) + 485 X(14) + 969 X(15) + 966 X(16)
           + 483 X(17) + 964 X(18) + 963 X(19) + 961 X(20) + 958 X(21)
           + 959 X(22) <= 10000
Bounds
 0 <= X(0) <= 1
 0 <= X(1) <= 1
 0 <= X(2) <= 1
 0 <= X(3) <= 1
 0 <= X(4) <= 1
 0 <= X(5) <= 1
 0 <= X(6) <= 1
 0 <= X(7) <= 1
 0 <= X(8) <= 1
 0 <= X(9) <= 1
 0 <= X(10) <= 1
 0 <= X(11) <= 1
 0 <= X(12) <= 1
 0 <= X(13) <= 1
 0 <= X(14) <= 1
 0 <= X(15) <= 1
 0 <= X(16) <= 1
 0 <= X(17) <= 1
 0 <= X(18) <= 1
 0 <= X(19) <= 1
 0 <= X(20) <= 1
 0 <= X(21) <= 1
 0 <= X(22) <= 1
Binaries
 X(0)  X(1)  X(2)  X(3)  X(4)  X(5)  X(6)  X(7)  X(8)  X(9)  X(10)  X(11) 
 X(12)  X(13)  X(14)  X(15)  X(16)  X(17)  X(18)  X(19)  X(20)  X(21)  X(22) 
End
